Optimal - objective value 200.00000000
      3 z_0_0_0_3                1                  -1.875
     13 z_0_0_1_2                1                  -1.875
     45 z_0_0_4_3                1                   1.875
     66 z_0_1_1_2                1                       0
     77 z_0_1_2_5                1         -3.33333333333333
     98 z_0_6_0_0                1                       0
    113 z_0_6_1_4                1                       0
    152 z_0_7_0_1                1                       0
    166 z_0_7_1_4                1                       0
    182 z_0_7_4_4                1                       0
    193 z_1_0_0_4                1                     2.5
    205 z_1_0_1_5                1                     2.5
    233 z_1_0_4_2                1                    -2.5
    260 z_1_1_1_7                1         -3.33333333333333
    261 z_1_1_2_0                1         -1.66666666666667
    303 z_1_3_1_8                1         2.23639455782313
    310 z_1_3_2_4                1         2.72959183673469
    330 z_1_3_4_5                1         -1.45408163265306
    344 z_1_6_0_8                1                   -1.25
    368 z_1_6_3_1                1                  -0.625
    382 z_1_6_4_4                1                   1.875
    394 z_1_7_0_5                1                   0.625
    422 z_1_7_4_6                1                    1.25
    434 z_2_0_0_7                1                       5
    441 z_2_0_1_3                1                     2.5
    470 z_2_0_4_1                1                    1.25
    506 z_2_3_2_7                1         0.918367346938772
    522 z_2_3_4_4                1         7.55102040816326
    547 z_2_6_1_7                1                      10
    579 z_2_6_4_8                1                       0
    591 z_2_7_0_9                1                       0
    596 z_2_7_1_3                1                      -5
    614 z_2_7_4_5                1                      -5
    633 z_3_3_1_5                1         -0.204081632653065
    665 z_3_3_4_7                1                       0
    695 z_3_4_2_9                1                       0
    732 z_3_5_1_2                1                       0
    755 z_3_5_4_3                1                       0
    764 z_3_6_0_1                1                       0
    774 z_3_6_1_0                1                       0
    796 z_3_6_3_2                1                       0
    805 z_3_6_4_0                1                       0
    828 z_4_1_1_1                1                       0
    838 z_4_1_2_3                1                       0
    873 z_4_3_1_4                1         0.35714285714286
    883 z_4_3_2_3                1         -2.90816326530612
    899 z_4_3_4_0                1         0.153061224489795
    934 z_4_4_2_7                1                       0
    977 z_4_5_1_6                1                       0
   1003 z_4_5_4_10               1                       0
   1020 z_4_6_1_5                1                       0
   1045 z_4_6_3_10               1                       0
   1047 z_4_6_4_1                1                       0
   1059 z_4_7_0_2                1                       0
   1070 z_4_7_1_2                1                      10
   1092 z_4_7_4_8                1                       0
   1100 z_5_0_0_5                1         -1.66666666666667
   1110 z_5_0_1_4                1         -1.66666666666667
   1137 z_5_0_4_0                1         0.833333333333333
   1148 z_5_2_0_0                1                     2.5
   1191 z_5_2_3_10               1                       5
   1217 z_5_3_1_6                1         0.0255102040816348
   1227 z_5_3_2_5                1                       0
   1244 z_5_3_4_3                1         0.816326530612245
   1292 z_5_5_4_7                1                       0
   1300 z_5_6_0_4                1                     2.5
   1310 z_5_6_1_3                1                    -2.5
   1330 z_5_6_3_3                1                     2.5
   1349 w_0_0                    1                       0
   1350 w_0_1                    1                       0
   1353 w_0_4                    1                       0
   1355 w_1_1                    1                      10
   1356 w_1_2                    1                      10
   1359 w_2_0                    1                       5
   1362 w_2_3                    1                       0
   1365 w_3_1                    1                       0
   1366 w_3_2                    1                       0
   1368 w_3_4                    1         6.93877551020408
   1371 w_4_2                    1         3.33333333333333
   1375 w_5_1                    1                      10
   1378 w_5_4                    1                      10
   1379 w_6_0                    1                      10
   1380 w_6_1                    1                       0
   1382 w_6_3                    1                      10
   1383 w_6_4                    1                      10
   1384 w_7_0                    1                      10
   1385 w_7_1                    1                       0
   1388 w_7_4                    1                      10
   1390 o_0_0_1    1.00000000000083                       0
   1391 o_0_0_2                  1                      -5
   1392 o_0_0_3    0.999999999998833                       0
   1393 o_0_0_4    0.999999999998833                       0
   1394 o_0_0_5                  1                       0
   1395 o_0_1_0                  1                       0
   1396 o_0_1_1                  1                       0
   1397 o_0_1_2                  1                       0
   1398 o_0_1_3                  1                       0
   1399 o_0_1_4                  1                       0
   1413 o_0_4_0                  1                       0
   1414 o_0_4_1                  1                       0
   1415 o_0_4_2                  1                       0
   1416 o_0_4_3                  1                       0
   1427 o_1_1_2                  1                       0
   1428 o_1_1_3                  1                       0
   1429 o_1_1_4                  1                       0
   1430 o_1_1_5     1.000000000001                       0
   1432 o_1_2_1                  1                       0
   1433 o_1_2_2     1.000000000001                       0
   1434 o_1_2_3     1.000000000001                       0
   1435 o_1_2_4                  1                       0
   1449 o_2_0_0                  1                       0
   1471 o_2_3_4                  1                       0
   1472 o_2_3_5                  1                       0
   1485 o_3_1_0    0.999999999999002                       0
   1486 o_3_1_1    0.999999999999002                       0
   1487 o_3_1_2    0.999999999999002                       0
   1488 o_3_1_3    0.999999999999568                       0
   1489 o_3_1_4    0.999999999999002                       0
   1490 o_3_1_5    1.00000000000174                       0
   1492 o_3_2_1    0.999999999999442                       0
   1493 o_3_2_2    0.999999999999442                       0
   1494 o_3_2_3                  1                       0
   1495 o_3_2_4    0.999999999999442                       0
   1496 o_3_2_5                  1                       0
   1503 o_3_4_0                  1                       0
   1504 o_3_4_1    1.00000000000137         -2.75510204081633
   1505 o_3_4_2                  1                       0
   1506 o_3_4_3     1.000000000003                       0
   1507 o_3_4_4                  1                       0
   1508 o_3_4_5                  1                       0
   1522 o_4_2_1                  1                       0
   1523 o_4_2_2     1.000000000003                       0
   1524 o_4_2_3                  1                       0
   1525 o_4_2_4                  1                       0
   1545 o_5_1_0                  1                       0
   1546 o_5_1_1                  1                       0
   1547 o_5_1_2                  1                       0
   1564 o_5_4_1                  1                       0
   1565 o_5_4_2     1.000000000001                       0
   1566 o_5_4_3                  1                       0
   1567 o_5_4_4                  1                       0
   1568 o_5_4_5                  1                       0
   1569 o_6_0_0                  1                       0
   1570 o_6_0_1     0.999999999999                       0
   1571 o_6_0_2                  1                       0
   1572 o_6_0_3                  1                       0
   1573 o_6_0_4                  1                       0
   1575 o_6_1_0                  1                       0
   1576 o_6_1_1     0.999999999999                       0
   1577 o_6_1_2                  1                       0
   1578 o_6_1_3     1.000000000002                       0
   1579 o_6_1_4                  1                       0
   1580 o_6_1_5                  1                       0
   1588 o_6_3_1     1.000000000002                       0
   1589 o_6_3_2                  1                       0
   1590 o_6_3_3     1.000000000001                       0
   1591 o_6_3_4     0.999999999999                       0
   1592 o_6_3_5                  1                       0
   1593 o_6_4_0     1.000000000002                       0
   1594 o_6_4_1                  1                       0
   1595 o_6_4_2                  1                       0
   1596 o_6_4_3     1.000000000001                       0
   1597 o_6_4_4                  1                       0
   1600 o_7_0_1     1.000000000002                       0
   1601 o_7_0_2     1.000000000001                       0
   1602 o_7_0_3                  1                       0
   1603 o_7_0_4                  1                       0
   1604 o_7_0_5                  1                       0
   1608 o_7_1_3                  1                       0
   1609 o_7_1_4                  1                       0
   1610 o_7_1_5                  1                       0
   1623 o_7_4_0                  1                       0
   1624 o_7_4_1                  1                       0
   1625 o_7_4_2     1.000000000002                       0
   1626 o_7_4_3     1.000000000001                       0
   1627 o_7_4_4     1.000000000003                       0
   1628 o_7_4_5     1.000000000004                       0
   1629 e_0_0_0                  1                       0
   1630 e_0_0_1                  1                       0
   1632 e_0_0_3                  1                       0
   1637 e_0_1_2                  1                       0
   1638 e_0_1_3                  1                       0
   1639 e_0_1_4                  1                       0
   1640 e_0_1_5                  1                       0
   1643 e_0_2_2                  1                       0
   1644 e_0_2_3                  1                       0
   1656 e_0_4_3                  1                       0
   1657 e_0_4_4                  1                       0
   1661 e_1_0_2                  1                       0
   1662 e_1_0_3                  1                       0
   1663 e_1_0_4                  1                       0
   1664 e_1_0_5                  1                       0
   1665 e_1_1_0                  1                    -2.5
   1666 e_1_1_1                  1                       0
   1667 e_1_1_2                  1         -3.33333333333333
   1668 e_1_1_3                  1                       0
   1669 e_1_1_4                  1                       0
   1670 e_1_1_5                  1                       0
   1672 e_1_2_1                  1                       0
   1675 e_1_2_4                  1                       0
   1678 e_1_3_1                  1                       0
   1683 e_1_4_0                  1                       0
   1684 e_1_4_1                  1                       0
   1685 e_1_4_2                  1                       0
   1687 e_1_4_4                  1                    -2.5
   1688 e_1_4_5                  1                       0
   1690 e_2_0_1                  1                       0
   1691 e_2_0_2                  1                       0
   1692 e_2_0_3                  1                       0
   1693 e_2_0_4                  1                       0
   1696 e_2_1_1                  1                       0
   1697 e_2_1_2                  1                       0
   1698 e_2_1_3                  1                       0
   1699 e_2_1_4                  1                       0
   1702 e_2_2_1                  1                       0
   1703 e_2_2_2                  1                       0
   1714 e_2_4_1                  1                       0
   1715 e_2_4_2                  1                       0
   1716 e_2_4_3    1.00000000000313                       0
   1717 e_2_4_4                  1                     -10
   1718 e_2_4_5                  1                       0
   1720 e_3_0_1                  1                       0
   1725 e_3_1_0    0.999999999999002                       0
   1727 e_3_1_2                  1                       0
   1730 e_3_1_5                  1                       0
   1734 e_3_2_3                  1                       0
   1735 e_3_2_4                  1                       0
   1739 e_3_3_2                  1                       0
   1743 e_3_4_0    0.999999999998758                       0
   1744 e_3_4_1    1.00000000000013                       0
   1745 e_3_4_2                  1                       0
   1746 e_3_4_3                  1                       0
   1751 e_4_0_2                  1                       0
   1755 e_4_1_0                  1                       0
   1756 e_4_1_1                  1                       0
   1757 e_4_1_2                  1                       0
   1758 e_4_1_3                  1                       0
   1759 e_4_1_4                  1                       0
   1760 e_4_1_5                  1                       0
   1762 e_4_2_1                  1                       0
   1763 e_4_2_2                  1                       0
   1764 e_4_2_3                  1                       0
   1765 e_4_2_4                  1                       0
   1771 e_4_3_4                  1                       0
   1772 e_4_3_5                  1                       0
   1773 e_4_4_0                  1                       0
   1774 e_4_4_1                  1                       0
   1775 e_4_4_2                  1                       0
   1776 e_4_4_3                  1                       0
   1777 e_4_4_4                  1                       0
   1778 e_4_4_5                  1                       0
   1779 e_5_0_0                  1                       0
   1783 e_5_0_4                  1                      -5
   1784 e_5_0_5                  1                       0
   1785 e_5_1_0                  1                       0
   1786 e_5_1_1                  1                       0
   1788 e_5_1_3                  1                       0
   1789 e_5_1_4    0.999999999999568                       0
   1796 e_5_2_5    1.00000000000056                       0
   1800 e_5_3_3    1.00000000000067                       0
   1801 e_5_3_4    0.999999999999667                       0
   1802 e_5_3_5    0.999999999999667                       0
   1803 e_5_4_0                  1                       0
   1804 e_5_4_1                  1                       0
   1805 e_5_4_2                  1                       0
   1806 e_5_4_3                  1                       0
   1810 af_0_0_0   1.00000000000083                       0
   1812 af_0_0_1                 1                       0
   1813 bf_0_0_2                 1                       0
   1814 af_0_0_2   0.999999999998833                       0
   1815 bf_0_0_3                 1                       0
   1816 af_0_0_3   0.999999999998833                       0
   1817 bf_0_0_4                 1                       0
   1818 af_0_0_4                 1                       0
   1819 bf_0_0_5                 1                       0
   1822 af_0_1_0                 1                       0
   1823 bf_0_1_1                 1                       0
   1824 af_0_1_1                 1                       0
   1825 bf_0_1_2    1.000000000001                       0
   1826 af_0_1_2                 1                       0
   1827 bf_0_1_3                 1                       0
   1828 af_0_1_3                 1                       0
   1829 bf_0_1_4                 1                       0
   1831 bf_0_1_5    0.999999999999                       0
   1858 af_0_4_0                 1                       0
   1859 bf_0_4_1                 1                       0
   1860 af_0_4_1   0.999999999995334                       0
   1861 bf_0_4_2                 1                       0
   1862 af_0_4_2   0.999999999997333                       0
   1863 bf_0_4_3                 1                       0
   1865 bf_0_4_4    0.999999999999                       0
   1867 bf_0_4_5    0.999999999997                       0
   1882 af_1_1_0                 1                       0
   1884 af_1_1_1    0.999999999999                       0
   1886 af_1_1_2                 1                       0
   1887 bf_1_1_3                 1                       0
   1888 af_1_1_3                 1                       0
   1889 bf_1_1_4    0.999999999999                       0
   1890 af_1_1_4    1.000000000001                       0
   1891 bf_1_1_5    0.999999999999                       0
   1894 af_1_2_0                 1                       0
   1896 af_1_2_1    0.999999999999                       0
   1897 bf_1_2_2    1.000000000001                       0
   1898 af_1_2_2    0.999999999999                       0
   1899 bf_1_2_3                 1                       0
   1900 af_1_2_3                 1                       0
   1901 bf_1_2_4                 1                       0
   1903 bf_1_2_5    0.999999999999                       0
   1931 bf_2_0_1    1.000000000003                       0
   1933 bf_2_0_2    1.000000000002                       0
   1935 bf_2_0_3    1.000000000001                       0
   1937 bf_2_0_4                 1                       0
   1939 bf_2_0_5    0.999999999999                       0
   1966 af_2_3_0                 1                       0
   1968 af_2_3_1    1.000000000001                       0
   1970 af_2_3_2    0.999999999996                       0
   1972 af_2_3_3    0.999999999997                       0
   1974 af_2_3_4    0.999999999998                       0
   1975 bf_2_3_5                 1                       0
   2002 af_3_1_0                 1                       0
   2003 bf_3_1_1                 1                       0
   2004 af_3_1_1   0.999999999998045                       0
   2005 bf_3_1_2                 1                       0
   2006 af_3_1_2   0.999999999998045                       0
   2007 bf_3_1_3   0.999999999999002                       0
   2008 af_3_1_3   0.999999999998045                       0
   2009 bf_3_1_4    1.000000000001                       0
   2010 af_3_1_4   0.999999999999045                       0
   2011 bf_3_1_5                 1                       0
   2014 af_3_2_0                 1                       0
   2016 af_3_2_1   0.999999999999442                       0
   2017 bf_3_2_2                 1                       0
   2018 af_3_2_2                 1                       0
   2019 bf_3_2_3    0.999999999999                       0
   2020 af_3_2_3   0.999999999999442                       0
   2021 bf_3_2_4                 1                       0
   2022 af_3_2_4                 1         -1.63265306122449
   2023 bf_3_2_5                 1                       0
   2038 af_3_4_0                 1         -2.44897959183674
   2039 bf_3_4_1    1.000000000001                       0
   2040 af_3_4_1    1.000000000001                       0
   2041 bf_3_4_2                 1                       0
   2042 af_3_4_2    1.000000000003                       0
   2043 bf_3_4_3                 1         -3.36734693877551
   2044 af_3_4_3                 1                       0
   2045 bf_3_4_4    1.000000000002                       0
   2046 af_3_4_4                 1                       0
   2047 bf_3_4_5                 1                       0
   2074 af_4_2_0    0.999999999999                       0
   2076 af_4_2_1    1.000000000001                       0
   2077 bf_4_2_2    1.000000000003                       0
   2078 af_4_2_2                 1                       0
   2079 bf_4_2_3    1.000000000002                       0
   2080 af_4_2_3                 1                       0
   2081 bf_4_2_4                 1                       0
   2083 bf_4_2_5    0.999999999999                       0
   2122 af_5_1_0    0.999999999999                       0
   2123 bf_5_1_1                 1                       0
   2124 af_5_1_1    0.999999999999                       0
   2125 bf_5_1_2                 1                       0
   2127 bf_5_1_3                 1                       0
   2129 bf_5_1_4    1.000000000001                       0
   2131 bf_5_1_5                 1                       0
   2158 af_5_4_0                 1                       0
   2160 af_5_4_1    0.999999999999                       0
   2161 bf_5_4_2    1.000000000001                       0
   2162 af_5_4_2    0.999999999999                       0
   2163 bf_5_4_3                 1                       0
   2164 af_5_4_3                 1                       0
   2165 bf_5_4_4                 1                       0
   2166 af_5_4_4    1.000000000001                       0
   2167 bf_5_4_5    0.999999999999                       0
   2170 af_6_0_0                 1                       0
   2171 bf_6_0_1                 1                       0
   2172 af_6_0_1    0.999999999999                       0
   2173 bf_6_0_2    0.999999999999                       0
   2174 af_6_0_2    0.999999999999                       0
   2175 bf_6_0_3                 1                       0
   2176 af_6_0_3                 1                       0
   2177 bf_6_0_4    0.999999999999                       0
   2179 bf_6_0_5                 1                       0
   2182 af_6_1_0                 1                       0
   2183 bf_6_1_1                 1                       0
   2184 af_6_1_1    0.999999999999                       0
   2185 bf_6_1_2    0.999999999999                       0
   2186 af_6_1_2                 1                       0
   2187 bf_6_1_3    1.000000000002                       0
   2188 af_6_1_3                 1                       0
   2189 bf_6_1_4    1.000000000001                       0
   2190 af_6_1_4                 1                       0
   2191 bf_6_1_5    0.999999999999                       0
   2206 af_6_3_0                 1                       0
   2208 af_6_3_1    0.999999999999                       0
   2209 bf_6_3_2    1.000000000001                       0
   2210 af_6_3_2                 1                       0
   2211 bf_6_3_3                 1                       0
   2212 af_6_3_3    1.000000000001                       0
   2213 bf_6_3_4    1.000000000001                       0
   2214 af_6_3_4    1.000000000002                       0
   2215 bf_6_3_5    0.999999999999                       0
   2218 af_6_4_0                 1                       0
   2219 bf_6_4_1    1.000000000001                       0
   2220 af_6_4_1    0.999999999999                       0
   2221 bf_6_4_2                 1                       0
   2222 af_6_4_2                 1                       0
   2223 bf_6_4_3    1.000000000002                       0
   2224 af_6_4_3                 1                       0
   2225 bf_6_4_4    1.000000000001                       0
   2227 bf_6_4_5    0.999999999999                       0
   2230 af_7_0_0                 1                       0
   2232 af_7_0_1                 1                       0
   2233 bf_7_0_2    1.000000000001                       0
   2234 af_7_0_2    0.999999999999                       0
   2235 bf_7_0_3    1.000000000001                       0
   2236 af_7_0_3                 1                       0
   2237 bf_7_0_4    0.999999999999                       0
   2238 af_7_0_4    1.000000000001                       0
   2239 bf_7_0_5                 1                       0
   2242 af_7_1_0                 1                       0
   2244 af_7_1_1    0.999999999999                       0
   2246 af_7_1_2                 1                       0
   2248 af_7_1_3                 1                       0
   2249 bf_7_1_4    1.000000000001                       0
   2250 af_7_1_4                 1                       0
   2251 bf_7_1_5                 1                       0
   2278 af_7_4_0                 1                       0
   2279 bf_7_4_1    0.999999999995                       0
   2280 af_7_4_1    0.999999999999                       0
   2281 bf_7_4_2    0.999999999993                       0
   2282 af_7_4_2                 1                       0
   2283 bf_7_4_3    1.000000000002                       0
   2284 af_7_4_3    1.000000000001                       0
   2285 bf_7_4_4    1.000000000001                       0
   2286 af_7_4_4    1.000000000003                       0
   2287 bf_7_4_5                 1                       0
